proyfinal/src/viki/013/experimentInOfficeAgust.take6.output/d0a585be-05b2-4699-ac0f-dc020f34b9d7.als.dat
{'cnf.clauses': '118081',
 'cnf.totvars': '69608',
 'conflict literals': '89',
 'conflicts': '26',
 'decisions': '2561',
 'memused.mb': '16.14',
 'outcome': 'UNSAT',
 'propagations': '18958',
 'restarts': '1',
 'solver.msecs': 31,
 'task.msecs': 121}
