proyfinal/src/viki/013/experimentInOfficeAgust.take6.output/d0a585be-05b2-4699-ac0f-dc020f34b9d7.als.out
Reading from standard input... Use '--help' for help.
============================[ Problem Statistics ]=============================
|                                                                             |
|  Number of variables:         69608                                         |
|  Number of clauses:          118081                                         |
|  Parse time:                   0.02 s                                       |
|                                                                             |
============================[ Search Statistics ]==============================
| Conflicts |          ORIGINAL         |          LEARNT          | Progress |
|           |    Vars  Clauses Literals |    Limit  Clauses Lit/Cl |          |
===============================================================================
===============================================================================
restarts              : 1
conflicts             : 26             (838 /sec)
decisions             : 2561           (0.00 % random) (82506 /sec)
propagations          : 18958          (610760 /sec)
conflict literals     : 89             (0.00 % deleted)
Memory used           : 16.14 MB
CPU time              : 0.03104 s

UNSATISFIABLE
